benchmarks/bfuzz0/167577791869510643111101509516864217.smt2
(set-logic QF_FP)
(declare-const x0 (_ FloatingPoint 11 53))
(declare-const x1 (_ FloatingPoint 11 53))
(declare-const x2 (_ FloatingPoint 11 53))
(declare-const x3 (_ FloatingPoint 11 53))
(declare-const x4 (_ FloatingPoint 11 53))
(declare-const x5 (_ FloatingPoint 11 53))
(declare-const x6 (_ FloatingPoint 11 53))
(declare-const x7 (_ FloatingPoint 11 53))
(declare-const x8 (_ FloatingPoint 11 53))
(declare-const x9 (_ FloatingPoint 11 53))
(assert (fp.lt (fp.div RNE x7 x0) (fp.add RNE x2 x0)))
(assert (fp.leq (fp.mul RNE x2 x3) (fp.add RNE x0 x8)))
(assert (fp.geq (fp.neg x7) (fp.add RNE x8 x4)))
(assert (fp.gt (fp.mul RNE x0 x5) (fp.mul RNE x9 x5)))
(assert (fp.leq (fp.neg x4) (fp.mul RNE x5 x9)))
(assert (fp.leq (fp.neg x1) (fp.mul RNE x1 x8)))
(assert (fp.lt (fp.add RNE x8 x2) (fp.sub RNE x3 x1)))
(assert (fp.gt (fp.add RNE x7 x5) (fp.sub RNE x1 x0)))
(assert (fp.leq (fp.div RNE x1 x2) (fp.add RNE x8 x3)))
(assert (fp.geq (fp.mul RNE x9 x8) (fp.sub RNE x4 x9)))
(assert (fp.leq (fp.neg x8) (fp.div RNE x3 x4)))
(assert (fp.gt (fp.mul RNE x5 x7) (fp.add RNE x4 x2)))
(assert (fp.geq (fp.div RNE x5 x4) (fp.neg x6)))
(assert (fp.leq (fp.div RNE x3 x3) (fp.add RNE x0 x5)))
(check-sat)
