db/data/167577791869510643111101509516864217.z3.out
-------------------
2500.117255557
